c E(6,5) E(5,6) E(5,0) E(0,5) E(5,3) E(3,5) E(4,5) E(5,4) E(2,5) E(5,2) E(5,1) E(1,5) E(6,0) E(0,6) E(6,3) E(3,6) E(6,4) E(4,6) E(2,6) E(6,2) E(6,1) E(1,6) E(3,0) E(0,3) E(4,0) E(0,4) E(2,0) E(0,2) E(1,0) E(0,1) E(4,3) E(3,4) E(3,2) E(2,3) E(1,3) E(3,1) E(2,4) E(4,2) E(4,1) E(1,4) E(2,1) E(1,2)
c 1 2 3 4 5 6 7 8 9 10 11 12 13 14 15 16 17 18 19 20 21 22 23 24 25 26 27 28 29 30 31 32 33 34 35 36 37 38 39 40 41 42
p cnf 42 91
30 -30 0
30 -29 0
28 -28 0
28 -27 0
24 -24 0
24 -23 0
26 -26 0
26 -25 0
4 -4 0
4 -3 0
14 -14 0
14 -13 0
29 -30 0
29 -29 0
42 -42 0
42 -41 0
35 -35 0
35 -36 0
40 -40 0
40 -39 0
12 -12 0
12 -11 0
22 -22 0
22 -21 0
27 -28 0
27 -27 0
41 -42 0
41 -41 0
34 -34 0
34 -33 0
37 -37 0
37 -38 0
9 -9 0
9 -10 0
19 -19 0
19 -20 0
23 -24 0
23 -23 0
36 -35 0
36 -36 0
33 -34 0
33 -33 0
32 -32 0
32 -31 0
6 -6 0
6 -5 0
16 -16 0
16 -15 0
25 -26 0
25 -25 0
39 -40 0
39 -39 0
38 -37 0
38 -38 0
31 -32 0
31 -31 0
7 -7 0
7 -8 0
18 -18 0
18 -17 0
3 -4 0
3 -3 0
11 -12 0
11 -11 0
10 -9 0
10 -10 0
5 -6 0
5 -5 0
8 -7 0
8 -8 0
2 -2 0
2 -1 0
13 -14 0
13 -13 0
21 -22 0
21 -21 0
20 -19 0
20 -20 0
15 -16 0
15 -15 0
17 -18 0
17 -17 0
1 -2 0
1 -1 0
30 28 24 26 4 14 0
29 42 35 40 12 22 0
27 41 34 37 9 19 0
23 36 33 32 6 16 0
25 39 38 31 7 18 0
3 11 10 5 8 2 0
13 21 20 15 17 1 0
